AES/1_3_4/ssaes_r1-20_c3_rw1_e4_f0_k1-20_aes_min_box_aes_mc_bidirectional/ExperimentMinisat_r4_k14cnf_2011-10-29-154045/Result
WARNING: for repeatability, setting FPU to use double precision
============================[ Problem Statistics ]=============================
|                                                                             |
|  Number of variables:           260                                         |
|  Number of clauses:             976                                         |
|  Parse time:                   0.00 s                                       |
|  Eliminated clauses:           0.00 Mb                                      |
|  Simplification time:          0.00 s                                       |
|                                                                             |
=============================[ Search Statistics ]==============================
| Conflicts  |          ORIGINAL         |          LEARNT          | Progress |
|            |    Vars  Clauses Literals |    Limit  Clauses Lit/Cl |          |
================================================================================
|        100 |     160      712     2368 |      261      100     10 | 15.388 % |
|        250 |     160      712     2368 |      287      250     10 | 15.386 % |
|        475 |     160      712     2368 |      315      308      9 | 15.386 % |
===============================================================================
restarts              : 5
conflicts             : 569            (56911 /sec)
decisions             : 688            (0.00 % random) (68814 /sec)
propagations          : 25653          (2565813 /sec)
conflict literals     : 5697           (24.98 % deleted)
Memory used           : 8.00 MB
CPU time              : 0.009998 s

SATISFIABLE
